229
750
600	1
598	2
597	1
596	1
595	1
594	2
591	1
586	1
584	1
582	1
581	2
579	1
577	1
576	2
575	1
574	1
571	1
570	3
569	1
567	1
564	2
563	1
562	3
559	1
558	3
556	1
555	1
551	1
550	1
549	3
545	1
543	2
541	2
540	1
539	1
535	1
533	1
530	1
528	1
522	1
516	3
513	1
505	1
504	1
503	1
502	1
500	1
499	1
498	3
495	2
494	1
493	2
492	1
490	1
488	2
487	1
486	1
483	1
482	1
480	1
474	1
473	1
471	1
469	1
467	1
462	1
461	1
459	1
456	2
454	2
453	1
452	1
449	1
448	1
447	4
445	2
444	1
443	3
439	1
438	1
436	1
434	1
433	1
428	1
427	1
418	1
410	1
409	3
406	1
402	1
401	1
400	1
399	1
398	1
397	1
396	1
394	2
391	1
389	1
388	1
387	2
386	2
384	2
377	1
376	1
375	1
374	1
373	1
371	1
369	1
368	1
367	1
362	2
358	1
356	1
352	1
346	1
344	1
343	1
341	1
340	1
336	2
334	2
332	1
329	1
328	1
327	1
322	1
320	1
316	1
315	1
314	1
307	1
306	2
305	2
301	4
299	1
298	1
293	1
291	1
290	2
288	3
286	2
284	1
281	2
279	1
278	1
275	1
272	1
268	1
265	2
258	2
257	1
254	1
249	1
243	1
242	1
238	1
234	1
229	1
225	1
221	1
220	1
215	1
209	1
208	2
207	3
206	1
200	1
199	1
197	2
196	1
195	2
192	1
191	2
189	1
186	3
184	1
183	1
179	1
178	1
177	1
174	1
171	2
168	1
167	2
166	1
165	1
159	2
157	1
154	1
153	2
152	1
151	1
150	1
149	1
148	2
147	1
146	1
143	4
139	1
138	1
137	1
135	2
133	1
129	1
128	1
127	1
123	1
120	1
119	1
117	1
115	1
110	1
109	1
108	1
106	1
105	1
104	1
100	1
93	2
92	3
91	1
90	1
86	1
85	1
84	1
81	1
76	1
